Name:		BHW11
Optimal value:	-1
#Vehicles:	-1
Capacity:	305
Depot Node:	1
#Nodes:		77
#Edges:		0
#Arcs:		196
#Required N:	20
#Required E:	0
#Required A:	51

ReN.	DEMAND	S. COST
N69	18	18
N27	40	40
N36	39	39
N12	21	21
N18	23	23
N24	38	38
N73	34	34
N26	24	24
N5	28	28
N51	17	17
N6	42	42
N3	19	19
N76	17	17
N13	20	20
N41	46	46
N67	48	48
N16	22	22
N60	37	37
N52	22	22
N21	11	11

ReE.	From N.	To N.	T. COST	DEMAND	S. COST

EDGE	FROM N.	TO N.	T. COST

ReA.	FROM N.	TO N.	T. COST	DEMAND	S. COST
A1	2	1	32	32	64
A2	3	2	14	14	28
A3	4	2	17	17	34
A4	5	4	56	56	112
A5	10	9	20	20	40
A6	12	11	32	32	64
A7	16	12	29	29	58
A8	16	13	13	13	26
A9	14	13	7	7	14
A10	17	15	26	26	52
A11	18	15	38	38	76
A12	19	18	41	41	82
A13	20	19	32	32	64
A14	21	19	38	38	76
A15	22	21	17	17	34
A16	75	22	24	24	48
A17	31	23	40	40	80
A18	32	31	58	58	116
A19	33	32	30	30	60
A20	34	32	43	43	86
A21	35	32	86	86	172
A22	41	35	15	15	30
A23	44	43	78	78	156
A24	45	44	12	12	24
A25	46	44	13	13	26
A26	47	46	33	33	66
A27	48	47	10	10	20
A28	49	47	9	9	18
A29	50	49	8	8	16
A30	51	49	10	10	20
A31	52	50	2	2	4
A32	54	52	4	4	8
A33	56	55	6	6	12
A34	57	42	14	14	28
A35	58	57	78	78	156
A36	59	58	25	25	50
A37	59	11	78	78	156
A38	60	58	33	33	66
A39	61	60	39	39	78
A40	62	60	23	23	46
A41	63	62	30	30	60
A42	65	63	21	21	42
A43	66	62	16	16	32
A44	68	66	45	45	90
A45	69	58	32	32	64
A46	69	59	11	11	22
A47	69	4	75	75	150
A48	75	23	17	17	34
A49	76	20	8	8	16
A50	51	21	2	2	4
A51	59	44	28	28	56

ARC	FROM N.	TO N.	T. COST
NrA1	1	2	32
NrA2	2	3	14
NrA3	2	4	17
NrA4	4	5	56
NrA5	9	10	20
NrA6	11	12	32
NrA7	12	16	29
NrA8	13	16	13
NrA9	13	14	7
NrA10	15	17	26
NrA11	15	18	38
NrA12	18	19	41
NrA13	19	20	32
NrA14	19	21	38
NrA15	21	22	17
NrA16	22	75	24
NrA17	23	31	40
NrA18	31	32	58
NrA19	32	33	30
NrA20	32	34	43
NrA21	32	35	86
NrA22	35	41	15
NrA23	43	44	78
NrA24	44	45	12
NrA25	44	46	13
NrA26	46	47	33
NrA27	47	48	10
NrA28	47	49	9
NrA29	49	50	8
NrA30	49	51	10
NrA31	50	52	2
NrA32	52	54	4
NrA33	55	56	6
NrA34	42	57	14
NrA35	57	58	78
NrA36	58	59	25
NrA37	11	59	78
NrA38	58	60	33
NrA39	60	61	39
NrA40	60	62	23
NrA41	62	63	30
NrA42	63	65	21
NrA43	62	66	16
NrA44	66	68	45
NrA45	58	69	32
NrA46	59	69	11
NrA47	4	69	75
NrA48	23	75	17
NrA49	20	76	8
NrA50	21	51	2
NrA51	44	59	28
NrA52	5	6	8
NrA53	5	7	6
NrA54	7	8	18
NrA55	8	9	26
NrA56	10	11	12
NrA57	14	15	7
NrA58	13	77	12
NrA59	18	20	21
NrA60	22	24	4
NrA61	24	25	27
NrA62	25	75	16
NrA63	25	26	17
NrA64	23	26	12
NrA65	26	27	15
NrA66	26	28	18
NrA67	28	29	16
NrA68	25	29	27
NrA69	30	31	14
NrA70	33	36	27
NrA71	33	37	75
NrA72	37	38	8
NrA73	37	39	21
NrA74	39	40	5
NrA75	35	39	7
NrA76	40	41	9
NrA77	41	42	18
NrA78	42	43	11
NrA79	45	46	12
NrA80	11	48	79
NrA81	51	53	4
NrA82	52	53	4
NrA83	24	53	24
NrA84	19	50	30
NrA85	42	56	26
NrA86	63	64	9
NrA87	70	71	56
NrA88	71	72	6
NrA89	71	73	5
NrA90	72	73	5
NrA91	73	74	25
NrA92	18	72	92
NrA93	56	67	36
NrA94	12	76	7
NrA95	15	77	13
NrA96	76	77	35
NrA97	60	67	29
NrA98	62	67	31
NrA99	6	5	8
NrA100	7	5	6
NrA101	8	7	18
NrA102	9	8	26
NrA103	11	10	12
NrA104	15	14	7
NrA105	77	13	12
NrA106	20	18	21
NrA107	24	22	4
NrA108	25	24	27
NrA109	75	25	16
NrA110	26	25	17
NrA111	26	23	12
NrA112	27	26	15
NrA113	28	26	18
NrA114	29	28	16
NrA115	29	25	27
NrA116	31	30	14
NrA117	36	33	27
NrA118	37	33	75
NrA119	38	37	8
NrA120	39	37	21
NrA121	40	39	5
NrA122	39	35	7
NrA123	41	40	9
NrA124	42	41	18
NrA125	43	42	11
NrA126	46	45	12
NrA127	48	11	79
NrA128	53	51	4
NrA129	53	52	4
NrA130	53	24	24
NrA131	50	19	30
NrA132	56	42	26
NrA133	64	63	9
NrA134	71	70	56
NrA135	72	71	6
NrA136	73	71	5
NrA137	73	72	5
NrA138	74	73	25
NrA139	72	18	92
NrA140	67	56	36
NrA141	76	12	7
NrA142	77	15	13
NrA143	77	76	35
NrA144	67	60	29
NrA145	67	62	31
Based on CARP instance egl e1 A
